167
10000
652
3759
2457
773
4979
308
4058
488
2702
2192
1061
499
2446
181
1136
1084
218
1383
135
2640
467
3217
1014
1846
635
337
902
3113
1257
907
777
4444
3347
3215
35
2516
2167
366
531
1
2388
2828
1661
4371
1493
1616
1413
1076
3131
2218
1291
2423
1189
809
3907
264
973
4541
673
15
4994
1067
2123
1149
2950
2134
3511
4940
1095
171
4449
2674
2471
1899
513
306
1190
480
4866
984
341
2254
262
1351
69
110
4642
1484
4990
4110
753
3679
997
909
3444
2184
323
2246
3488
1187
2867
1369
124
2762
519
2596
181
3605
4760
29
639
3630
1553
573
1078
2004
1378
964
646
3645
3661
3589
225
150
927
1391
257
660
1209
182
2097
1640
42
510
2971
4041
1157
1489
3393
86
4328
231
2155
2236
339
4614
594
630
5
1083
4303
461
266
543
2991
4730
1751
1311
2770
3011
120
1572
2139
2172
389
1783
3560
